NAME : Tesis-6
DIMENSION : 7
FLEET : 4
PLANIFICATION_HORIZON: 35
NODE_INFORMATION
NODE	SERV	MINV	MAXV
0	0	0	4
1	3	1	1
2	3	2	4
3	3	1	8
4	5	1	2
5	4	1	4
6	0	0 	4
MATRIX
0	1	4	5	3	3	100
1	0	4	5	3	3	1
5	5	0	1	6	2	5
5	5	1	0	7	2	5
3	3	6	6	0	5	3
4	4 	2 	2	5	0 	4
100	100	100	100	100	100	0